NAME : instances/clustered-mixed-tsp/instance-22.tsp
COMMENT : No Comment
TYPE : TSP
DIMENSION: 44
EDGE_WEIGHT_TYPE : EUC_2D
NODE_COORD_SECTION
1 761 1610 
2 876 1538 
3 575 1224 
4 430 1605 
5 964 1285 
6 1058 1706 
7 6842 5576 
8 529 1667 
9 553 1438 
10 960 1226 
11 1138 1801 
12 516 1781 
13 842 1405 
14 6553 5384 
15 1057 1387 
16 1059 1627 
17 512 1623 
18 510 1612 
19 6476 5550 
20 6424 5262 
21 745 1649 
22 1038 1678 
23 935 1481 
24 830 1435 
25 508 1374 
26 6823 5082 
27 6643 5341 
28 1038 1266 
29 6848 4973 
30 586 1423 
31 6894 5635 
32 689 1422 
33 699 1347 
34 6506 5577 
35 892 1779 
36 6589 5511 
37 7009 5558 
38 1009 1473 
39 1092 1370 
40 6390 5129 
41 1151 1293 
42 661 1641 
43 675 1277 
44 6792 5318 
EOF
